50
1266
50 98 54 6 34 66 63 52 39 62 46 75 28 65 18 37 18 97 13 80 33 69 91 78 19 40 13 94 10 88 43 61 72 13 46 56 41 79 82 27 71 62 57 67 34 8 71 2 12 93
52 91 86 81 1 79 64 43 32 94 42 91 9 25 73 29 31 19 70 58 12 11 41 66 63 14 39 71 38 91 16 71 43 70 27 78 71 76 37 57 12 77 50 41 74 31 38 24 25 24
